p cnf 240 560
1 2 3 0
4 5 6 0
7 8 9 0
10 11 12 0
13 14 15 0
16 17 18 0
19 20 21 0
22 23 24 0
25 26 27 0
28 29 30 0
31 32 33 0
34 35 36 0
37 38 39 0
40 41 42 0
43 44 45 0
46 47 48 0
49 50 51 0
52 53 54 0
55 56 57 0
58 59 60 0
61 62 63 0
64 65 66 0
67 68 69 0
70 71 72 0
73 74 75 0
76 77 78 0
79 80 81 0
82 83 84 0
85 86 87 0
88 89 90 0
91 92 93 0
94 95 96 0
97 98 99 0
100 101 102 0
103 104 105 0
106 107 108 0
109 110 111 0
112 113 114 0
115 116 117 0
118 119 120 0
121 122 123 0
124 125 126 0
127 128 129 0
130 131 132 0
133 134 135 0
136 137 138 0
139 140 141 0
142 143 144 0
145 146 147 0
148 149 150 0
151 152 153 0
154 155 156 0
157 158 159 0
160 161 162 0
163 164 165 0
166 167 168 0
169 170 171 0
172 173 174 0
175 176 177 0
178 179 180 0
181 182 183 0
184 185 186 0
187 188 189 0
190 191 192 0
193 194 195 0
196 197 198 0
199 200 201 0
202 203 204 0
205 206 207 0
208 209 210 0
211 212 213 0
214 215 216 0
217 218 219 0
220 221 222 0
223 224 225 0
226 227 228 0
229 230 231 0
232 233 234 0
235 236 237 0
238 239 240 0
-1 -2 0
-1 -3 0
-2 -3 0
-4 -5 0
-4 -6 0
-5 -6 0
-7 -8 0
-7 -9 0
-8 -9 0
-10 -11 0
-10 -12 0
-11 -12 0
-13 -14 0
-13 -15 0
-14 -15 0
-16 -17 0
-16 -18 0
-17 -18 0
-19 -20 0
-19 -21 0
-20 -21 0
-22 -23 0
-22 -24 0
-23 -24 0
-25 -26 0
-25 -27 0
-26 -27 0
-28 -29 0
-28 -30 0
-29 -30 0
-31 -32 0
-31 -33 0
-32 -33 0
-34 -35 0
-34 -36 0
-35 -36 0
-37 -38 0
-37 -39 0
-38 -39 0
-40 -41 0
-40 -42 0
-41 -42 0
-43 -44 0
-43 -45 0
-44 -45 0
-46 -47 0
-46 -48 0
-47 -48 0
-49 -50 0
-49 -51 0
-50 -51 0
-52 -53 0
-52 -54 0
-53 -54 0
-55 -56 0
-55 -57 0
-56 -57 0
-58 -59 0
-58 -60 0
-59 -60 0
-61 -62 0
-61 -63 0
-62 -63 0
-64 -65 0
-64 -66 0
-65 -66 0
-67 -68 0
-67 -69 0
-68 -69 0
-70 -71 0
-70 -72 0
-71 -72 0
-73 -74 0
-73 -75 0
-74 -75 0
-76 -77 0
-76 -78 0
-77 -78 0
-79 -80 0
-79 -81 0
-80 -81 0
-82 -83 0
-82 -84 0
-83 -84 0
-85 -86 0
-85 -87 0
-86 -87 0
-88 -89 0
-88 -90 0
-89 -90 0
-91 -92 0
-91 -93 0
-92 -93 0
-94 -95 0
-94 -96 0
-95 -96 0
-97 -98 0
-97 -99 0
-98 -99 0
-100 -101 0
-100 -102 0
-101 -102 0
-103 -104 0
-103 -105 0
-104 -105 0
-106 -107 0
-106 -108 0
-107 -108 0
-109 -110 0
-109 -111 0
-110 -111 0
-112 -113 0
-112 -114 0
-113 -114 0
-115 -116 0
-115 -117 0
-116 -117 0
-118 -119 0
-118 -120 0
-119 -120 0
-121 -122 0
-121 -123 0
-122 -123 0
-124 -125 0
-124 -126 0
-125 -126 0
-127 -128 0
-127 -129 0
-128 -129 0
-130 -131 0
-130 -132 0
-131 -132 0
-133 -134 0
-133 -135 0
-134 -135 0
-136 -137 0
-136 -138 0
-137 -138 0
-139 -140 0
-139 -141 0
-140 -141 0
-142 -143 0
-142 -144 0
-143 -144 0
-145 -146 0
-145 -147 0
-146 -147 0
-148 -149 0
-148 -150 0
-149 -150 0
-151 -152 0
-151 -153 0
-152 -153 0
-154 -155 0
-154 -156 0
-155 -156 0
-157 -158 0
-157 -159 0
-158 -159 0
-160 -161 0
-160 -162 0
-161 -162 0
-163 -164 0
-163 -165 0
-164 -165 0
-166 -167 0
-166 -168 0
-167 -168 0
-169 -170 0
-169 -171 0
-170 -171 0
-172 -173 0
-172 -174 0
-173 -174 0
-175 -176 0
-175 -177 0
-176 -177 0
-178 -179 0
-178 -180 0
-179 -180 0
-181 -182 0
-181 -183 0
-182 -183 0
-184 -185 0
-184 -186 0
-185 -186 0
-187 -188 0
-187 -189 0
-188 -189 0
-190 -191 0
-190 -192 0
-191 -192 0
-193 -194 0
-193 -195 0
-194 -195 0
-196 -197 0
-196 -198 0
-197 -198 0
-199 -200 0
-199 -201 0
-200 -201 0
-202 -203 0
-202 -204 0
-203 -204 0
-205 -206 0
-205 -207 0
-206 -207 0
-208 -209 0
-208 -210 0
-209 -210 0
-211 -212 0
-211 -213 0
-212 -213 0
-214 -215 0
-214 -216 0
-215 -216 0
-217 -218 0
-217 -219 0
-218 -219 0
-220 -221 0
-220 -222 0
-221 -222 0
-223 -224 0
-223 -225 0
-224 -225 0
-226 -227 0
-226 -228 0
-227 -228 0
-229 -230 0
-229 -231 0
-230 -231 0
-232 -233 0
-232 -234 0
-233 -234 0
-235 -236 0
-235 -237 0
-236 -237 0
-238 -239 0
-238 -240 0
-239 -240 0
-1 -160 0
-4 -49 0
-7 -235 0
-10 -79 0
-13 -55 0
-16 -73 0
-19 -196 0
-22 -52 0
-25 -142 0
-28 -112 0
-31 -130 0
-34 -139 0
-37 -238 0
-40 -181 0
-43 -217 0
-46 -94 0
-49 -4 0
-52 -22 0
-55 -13 0
-58 -103 0
-61 -100 0
-64 -172 0
-67 -127 0
-70 -82 0
-73 -16 0
-76 -109 0
-79 -10 0
-82 -70 0
-85 -211 0
-88 -220 0
-91 -214 0
-94 -46 0
-97 -124 0
-100 -61 0
-103 -58 0
-106 -115 0
-109 -76 0
-112 -28 0
-115 -106 0
-118 -121 0
-121 -118 0
-124 -97 0
-127 -67 0
-130 -31 0
-133 -190 0
-136 -205 0
-139 -34 0
-142 -25 0
-145 -157 0
-148 -169 0
-151 -166 0
-154 -223 0
-157 -145 0
-160 -1 0
-163 -208 0
-166 -151 0
-169 -148 0
-172 -64 0
-175 -202 0
-178 -187 0
-181 -40 0
-184 -199 0
-187 -178 0
-190 -133 0
-193 -232 0
-196 -19 0
-199 -184 0
-202 -175 0
-205 -136 0
-208 -163 0
-211 -85 0
-214 -91 0
-217 -43 0
-220 -88 0
-223 -154 0
-226 -229 0
-229 -226 0
-232 -193 0
-235 -7 0
-238 -37 0
-2 -161 0
-5 -50 0
-8 -236 0
-11 -80 0
-14 -56 0
-17 -74 0
-20 -197 0
-23 -53 0
-26 -143 0
-29 -113 0
-32 -131 0
-35 -140 0
-38 -239 0
-41 -182 0
-44 -218 0
-47 -95 0
-50 -5 0
-53 -23 0
-56 -14 0
-59 -104 0
-62 -101 0
-65 -173 0
-68 -128 0
-71 -83 0
-74 -17 0
-77 -110 0
-80 -11 0
-83 -71 0
-86 -212 0
-89 -221 0
-92 -215 0
-95 -47 0
-98 -125 0
-101 -62 0
-104 -59 0
-107 -116 0
-110 -77 0
-113 -29 0
-116 -107 0
-119 -122 0
-122 -119 0
-125 -98 0
-128 -68 0
-131 -32 0
-134 -191 0
-137 -206 0
-140 -35 0
-143 -26 0
-146 -158 0
-149 -170 0
-152 -167 0
-155 -224 0
-158 -146 0
-161 -2 0
-164 -209 0
-167 -152 0
-170 -149 0
-173 -65 0
-176 -203 0
-179 -188 0
-182 -41 0
-185 -200 0
-188 -179 0
-191 -134 0
-194 -233 0
-197 -20 0
-200 -185 0
-203 -176 0
-206 -137 0
-209 -164 0
-212 -86 0
-215 -92 0
-218 -44 0
-221 -89 0
-224 -155 0
-227 -230 0
-230 -227 0
-233 -194 0
-236 -8 0
-239 -38 0
-3 -162 0
-6 -51 0
-9 -237 0
-12 -81 0
-15 -57 0
-18 -75 0
-21 -198 0
-24 -54 0
-27 -144 0
-30 -114 0
-33 -132 0
-36 -141 0
-39 -240 0
-42 -183 0
-45 -219 0
-48 -96 0
-51 -6 0
-54 -24 0
-57 -15 0
-60 -105 0
-63 -102 0
-66 -174 0
-69 -129 0
-72 -84 0
-75 -18 0
-78 -111 0
-81 -12 0
-84 -72 0
-87 -213 0
-90 -222 0
-93 -216 0
-96 -48 0
-99 -126 0
-102 -63 0
-105 -60 0
-108 -117 0
-111 -78 0
-114 -30 0
-117 -108 0
-120 -123 0
-123 -120 0
-126 -99 0
-129 -69 0
-132 -33 0
-135 -192 0
-138 -207 0
-141 -36 0
-144 -27 0
-147 -159 0
-150 -171 0
-153 -168 0
-156 -225 0
-159 -147 0
-162 -3 0
-165 -210 0
-168 -153 0
-171 -150 0
-174 -66 0
-177 -204 0
-180 -189 0
-183 -42 0
-186 -201 0
-189 -180 0
-192 -135 0
-195 -234 0
-198 -21 0
-201 -186 0
-204 -177 0
-207 -138 0
-210 -165 0
-213 -87 0
-216 -93 0
-219 -45 0
-222 -90 0
-225 -156 0
-228 -231 0
-231 -228 0
-234 -195 0
-237 -9 0
-240 -39 0
